(set-logic ALL)
(declare-const O (Array Int Int))
(define-fun m () Int 600)

(assert (= (select O 0) 1))
(assert (= (select O 1) 2))
(assert (= (select O 2) 1))
(assert (= (select O 3) 1))
(assert (= (select O 4) 2))
(assert (= (select O 5) 1))
(assert (= (select O 6) 1))
(assert (= (select O 7) 1))
(assert (= (select O 8) 1))
(assert (= (select O 9) 2))
(assert (= (select O 10) 2))
(assert (= (select O 11) 2))
(assert (= (select O 12) 1))
(assert (= (select O 13) 2))
(assert (= (select O 14) 1))
(assert (= (select O 15) 2))
(assert (= (select O 16) 1))
(assert (= (select O 17) 1))
(assert (= (select O 18) 2))
(assert (= (select O 19) 1))
(assert (= (select O 20) 1))
(assert (= (select O 21) 1))
(assert (= (select O 22) 1))
(assert (= (select O 23) 1))
(assert (= (select O 24) 1))
(assert (= (select O 25) 1))
(assert (= (select O 26) 1))
(assert (= (select O 27) 1))
(assert (= (select O 28) 1))
(assert (= (select O 29) 2))
(assert (= (select O 30) 1))
(assert (= (select O 31) 1))
(assert (= (select O 32) 1))
(assert (= (select O 33) 1))
(assert (= (select O 34) 1))
(assert (= (select O 35) 2))
(assert (= (select O 36) 1))
(assert (= (select O 37) 2))
(assert (= (select O 38) 1))
(assert (= (select O 39) 1))
(assert (= (select O 40) 1))
(assert (= (select O 41) 1))
(assert (= (select O 42) 1))
(assert (= (select O 43) 1))
(assert (= (select O 44) 2))
(assert (= (select O 45) 1))
(assert (= (select O 46) 1))
(assert (= (select O 47) 1))
(assert (= (select O 48) 1))
(assert (= (select O 49) 1))
(assert (= (select O 50) 1))
(assert (= (select O 51) 1))
(assert (= (select O 52) 1))
(assert (= (select O 53) 1))
(assert (= (select O 54) 2))
(assert (= (select O 55) 1))
(assert (= (select O 56) 2))
(assert (= (select O 57) 1))
(assert (= (select O 58) 1))
(assert (= (select O 59) 2))
(assert (= (select O 60) 1))
(assert (= (select O 61) 1))
(assert (= (select O 62) 2))
(assert (= (select O 63) 2))
(assert (= (select O 64) 1))
(assert (= (select O 65) 1))
(assert (= (select O 66) 1))
(assert (= (select O 67) 1))
(assert (= (select O 68) 2))
(assert (= (select O 69) 1))
(assert (= (select O 70) 1))
(assert (= (select O 71) 1))
(assert (= (select O 72) 1))
(assert (= (select O 73) 1))
(assert (= (select O 74) 2))
(assert (= (select O 75) 1))
(assert (= (select O 76) 2))
(assert (= (select O 77) 1))
(assert (= (select O 78) 1))
(assert (= (select O 79) 1))
(assert (= (select O 80) 2))
(assert (= (select O 81) 1))
(assert (= (select O 82) 1))
(assert (= (select O 83) 1))
(assert (= (select O 84) 1))
(assert (= (select O 85) 1))
(assert (= (select O 86) 1))
(assert (= (select O 87) 2))
(assert (= (select O 88) 1))
(assert (= (select O 89) 2))
(assert (= (select O 90) 1))
(assert (= (select O 91) 1))
(assert (= (select O 92) 2))
(assert (= (select O 93) 1))
(assert (= (select O 94) 1))
(assert (= (select O 95) 2))
(assert (= (select O 96) 1))
(assert (= (select O 97) 1))
(assert (= (select O 98) 1))
(assert (= (select O 99) 1))
(assert (= (select O 100) 1))
(assert (= (select O 101) 1))
(assert (= (select O 102) 1))
(assert (= (select O 103) 1))
(assert (= (select O 104) 1))
(assert (= (select O 105) 2))
(assert (= (select O 106) 2))
(assert (= (select O 107) 1))
(assert (= (select O 108) 1))
(assert (= (select O 109) 1))
(assert (= (select O 110) 1))
(assert (= (select O 111) 1))
(assert (= (select O 112) 1))
(assert (= (select O 113) 2))
(assert (= (select O 114) 1))
(assert (= (select O 115) 1))
(assert (= (select O 116) 2))
(assert (= (select O 117) 1))
(assert (= (select O 118) 2))
(assert (= (select O 119) 1))
(assert (= (select O 120) 2))
(assert (= (select O 121) 1))
(assert (= (select O 122) 1))
(assert (= (select O 123) 1))
(assert (= (select O 124) 2))
(assert (= (select O 125) 1))
(assert (= (select O 126) 1))
(assert (= (select O 127) 2))
(assert (= (select O 128) 1))
(assert (= (select O 129) 2))
(assert (= (select O 130) 1))
(assert (= (select O 131) 2))
(assert (= (select O 132) 1))
(assert (= (select O 133) 1))
(assert (= (select O 134) 1))
(assert (= (select O 135) 1))
(assert (= (select O 136) 1))
(assert (= (select O 137) 2))
(assert (= (select O 138) 1))
(assert (= (select O 139) 1))
(assert (= (select O 140) 1))
(assert (= (select O 141) 1))
(assert (= (select O 142) 1))
(assert (= (select O 143) 2))
(assert (= (select O 144) 1))
(assert (= (select O 145) 1))
(assert (= (select O 146) 1))
(assert (= (select O 147) 1))
(assert (= (select O 148) 1))
(assert (= (select O 149) 1))
(assert (= (select O 150) 1))
(assert (= (select O 151) 1))
(assert (= (select O 152) 1))
(assert (= (select O 153) 1))
(assert (= (select O 154) 1))
(assert (= (select O 155) 2))
(assert (= (select O 156) 1))
(assert (= (select O 157) 1))
(assert (= (select O 158) 1))
(assert (= (select O 159) 1))
(assert (= (select O 160) 1))
(assert (= (select O 161) 1))
(assert (= (select O 162) 1))
(assert (= (select O 163) 1))
(assert (= (select O 164) 1))
(assert (= (select O 165) 1))
(assert (= (select O 166) 2))
(assert (= (select O 167) 1))
(assert (= (select O 168) 1))
(assert (= (select O 169) 2))
(assert (= (select O 170) 2))
(assert (= (select O 171) 1))
(assert (= (select O 172) 2))
(assert (= (select O 173) 1))
(assert (= (select O 174) 2))
(assert (= (select O 175) 2))
(assert (= (select O 176) 1))
(assert (= (select O 177) 1))
(assert (= (select O 178) 1))
(assert (= (select O 179) 1))
(assert (= (select O 180) 2))
(assert (= (select O 181) 2))
(assert (= (select O 182) 2))
(assert (= (select O 183) 1))
(assert (= (select O 184) 2))
(assert (= (select O 185) 1))
(assert (= (select O 186) 2))
(assert (= (select O 187) 1))
(assert (= (select O 188) 2))
(assert (= (select O 189) 1))
(assert (= (select O 190) 2))
(assert (= (select O 191) 2))
(assert (= (select O 192) 2))
(assert (= (select O 193) 1))
(assert (= (select O 194) 2))
(assert (= (select O 195) 2))
(assert (= (select O 196) 1))
(assert (= (select O 197) 2))
(assert (= (select O 198) 1))
(assert (= (select O 199) 2))
(assert (= (select O 200) 1))
(assert (= (select O 201) 1))
(assert (= (select O 202) 1))
(assert (= (select O 203) 2))
(assert (= (select O 204) 1))
(assert (= (select O 205) 1))
(assert (= (select O 206) 1))
(assert (= (select O 207) 1))
(assert (= (select O 208) 1))
(assert (= (select O 209) 1))
(assert (= (select O 210) 1))
(assert (= (select O 211) 1))
(assert (= (select O 212) 2))
(assert (= (select O 213) 2))
(assert (= (select O 214) 1))
(assert (= (select O 215) 1))
(assert (= (select O 216) 1))
(assert (= (select O 217) 1))
(assert (= (select O 218) 1))
(assert (= (select O 219) 1))
(assert (= (select O 220) 1))
(assert (= (select O 221) 1))
(assert (= (select O 222) 1))
(assert (= (select O 223) 1))
(assert (= (select O 224) 1))
(assert (= (select O 225) 1))
(assert (= (select O 226) 2))
(assert (= (select O 227) 2))
(assert (= (select O 228) 2))
(assert (= (select O 229) 1))
(assert (= (select O 230) 2))
(assert (= (select O 231) 1))
(assert (= (select O 232) 1))
(assert (= (select O 233) 1))
(assert (= (select O 234) 1))
(assert (= (select O 235) 2))
(assert (= (select O 236) 2))
(assert (= (select O 237) 2))
(assert (= (select O 238) 1))
(assert (= (select O 239) 1))
(assert (= (select O 240) 2))
(assert (= (select O 241) 1))
(assert (= (select O 242) 2))
(assert (= (select O 243) 1))
(assert (= (select O 244) 1))
(assert (= (select O 245) 1))
(assert (= (select O 246) 1))
(assert (= (select O 247) 1))
(assert (= (select O 248) 1))
(assert (= (select O 249) 2))
(assert (= (select O 250) 1))
(assert (= (select O 251) 1))
(assert (= (select O 252) 2))
(assert (= (select O 253) 1))
(assert (= (select O 254) 1))
(assert (= (select O 255) 1))
(assert (= (select O 256) 1))
(assert (= (select O 257) 2))
(assert (= (select O 258) 1))
(assert (= (select O 259) 1))
(assert (= (select O 260) 1))
(assert (= (select O 261) 1))
(assert (= (select O 262) 1))
(assert (= (select O 263) 1))
(assert (= (select O 264) 1))
(assert (= (select O 265) 2))
(assert (= (select O 266) 1))
(assert (= (select O 267) 1))
(assert (= (select O 268) 2))
(assert (= (select O 269) 1))
(assert (= (select O 270) 1))
(assert (= (select O 271) 1))
(assert (= (select O 272) 1))
(assert (= (select O 273) 2))
(assert (= (select O 274) 2))
(assert (= (select O 275) 1))
(assert (= (select O 276) 1))
(assert (= (select O 277) 1))
(assert (= (select O 278) 2))
(assert (= (select O 279) 1))
(assert (= (select O 280) 1))
(assert (= (select O 281) 1))
(assert (= (select O 282) 1))
(assert (= (select O 283) 1))
(assert (= (select O 284) 1))
(assert (= (select O 285) 1))
(assert (= (select O 286) 1))
(assert (= (select O 287) 1))
(assert (= (select O 288) 1))
(assert (= (select O 289) 2))
(assert (= (select O 290) 1))
(assert (= (select O 291) 2))
(assert (= (select O 292) 1))
(assert (= (select O 293) 1))
(assert (= (select O 294) 1))
(assert (= (select O 295) 2))
(assert (= (select O 296) 1))
(assert (= (select O 297) 1))
(assert (= (select O 298) 1))
(assert (= (select O 299) 1))
(assert (= (select O 300) 1))
(assert (= (select O 301) 2))
(assert (= (select O 302) 2))
(assert (= (select O 303) 1))
(assert (= (select O 304) 2))
(assert (= (select O 305) 1))
(assert (= (select O 306) 1))
(assert (= (select O 307) 2))
(assert (= (select O 308) 2))
(assert (= (select O 309) 1))
(assert (= (select O 310) 1))
(assert (= (select O 311) 1))
(assert (= (select O 312) 1))
(assert (= (select O 313) 2))
(assert (= (select O 314) 1))
(assert (= (select O 315) 2))
(assert (= (select O 316) 1))
(assert (= (select O 317) 1))
(assert (= (select O 318) 1))
(assert (= (select O 319) 1))
(assert (= (select O 320) 2))
(assert (= (select O 321) 2))
(assert (= (select O 322) 1))
(assert (= (select O 323) 1))
(assert (= (select O 324) 1))
(assert (= (select O 325) 1))
(assert (= (select O 326) 1))
(assert (= (select O 327) 1))
(assert (= (select O 328) 1))
(assert (= (select O 329) 1))
(assert (= (select O 330) 1))
(assert (= (select O 331) 2))
(assert (= (select O 332) 2))
(assert (= (select O 333) 2))
(assert (= (select O 334) 2))
(assert (= (select O 335) 2))
(assert (= (select O 336) 1))
(assert (= (select O 337) 2))
(assert (= (select O 338) 1))
(assert (= (select O 339) 1))
(assert (= (select O 340) 1))
(assert (= (select O 341) 1))
(assert (= (select O 342) 1))
(assert (= (select O 343) 1))
(assert (= (select O 344) 1))
(assert (= (select O 345) 1))
(assert (= (select O 346) 1))
(assert (= (select O 347) 1))
(assert (= (select O 348) 1))
(assert (= (select O 349) 2))
(assert (= (select O 350) 1))
(assert (= (select O 351) 2))
(assert (= (select O 352) 1))
(assert (= (select O 353) 2))
(assert (= (select O 354) 1))
(assert (= (select O 355) 2))
(assert (= (select O 356) 1))
(assert (= (select O 357) 2))
(assert (= (select O 358) 1))
(assert (= (select O 359) 2))
(assert (= (select O 360) 1))
(assert (= (select O 361) 1))
(assert (= (select O 362) 1))
(assert (= (select O 363) 1))
(assert (= (select O 364) 2))
(assert (= (select O 365) 1))
(assert (= (select O 366) 1))
(assert (= (select O 367) 1))
(assert (= (select O 368) 2))
(assert (= (select O 369) 1))
(assert (= (select O 370) 1))
(assert (= (select O 371) 1))
(assert (= (select O 372) 1))
(assert (= (select O 373) 1))
(assert (= (select O 374) 2))
(assert (= (select O 375) 2))
(assert (= (select O 376) 1))
(assert (= (select O 377) 1))
(assert (= (select O 378) 2))
(assert (= (select O 379) 1))
(assert (= (select O 380) 1))
(assert (= (select O 381) 2))
(assert (= (select O 382) 1))
(assert (= (select O 383) 1))
(assert (= (select O 384) 1))
(assert (= (select O 385) 1))
(assert (= (select O 386) 1))
(assert (= (select O 387) 1))
(assert (= (select O 388) 1))
(assert (= (select O 389) 1))
(assert (= (select O 390) 1))
(assert (= (select O 391) 1))
(assert (= (select O 392) 1))
(assert (= (select O 393) 1))
(assert (= (select O 394) 1))
(assert (= (select O 395) 1))
(assert (= (select O 396) 1))
(assert (= (select O 397) 1))
(assert (= (select O 398) 2))
(assert (= (select O 399) 1))
(assert (= (select O 400) 1))
(assert (= (select O 401) 1))
(assert (= (select O 402) 2))
(assert (= (select O 403) 1))
(assert (= (select O 404) 1))
(assert (= (select O 405) 2))
(assert (= (select O 406) 1))
(assert (= (select O 407) 1))
(assert (= (select O 408) 1))
(assert (= (select O 409) 2))
(assert (= (select O 410) 1))
(assert (= (select O 411) 1))
(assert (= (select O 412) 2))
(assert (= (select O 413) 1))
(assert (= (select O 414) 2))
(assert (= (select O 415) 1))
(assert (= (select O 416) 2))
(assert (= (select O 417) 1))
(assert (= (select O 418) 1))
(assert (= (select O 419) 2))
(assert (= (select O 420) 1))
(assert (= (select O 421) 1))
(assert (= (select O 422) 1))
(assert (= (select O 423) 1))
(assert (= (select O 424) 2))
(assert (= (select O 425) 1))
(assert (= (select O 426) 1))
(assert (= (select O 427) 1))
(assert (= (select O 428) 1))
(assert (= (select O 429) 2))
(assert (= (select O 430) 1))
(assert (= (select O 431) 2))
(assert (= (select O 432) 1))
(assert (= (select O 433) 1))
(assert (= (select O 434) 1))
(assert (= (select O 435) 2))
(assert (= (select O 436) 1))
(assert (= (select O 437) 1))
(assert (= (select O 438) 1))
(assert (= (select O 439) 2))
(assert (= (select O 440) 1))
(assert (= (select O 441) 1))
(assert (= (select O 442) 1))
(assert (= (select O 443) 2))
(assert (= (select O 444) 2))
(assert (= (select O 445) 1))
(assert (= (select O 446) 2))
(assert (= (select O 447) 1))
(assert (= (select O 448) 1))
(assert (= (select O 449) 2))
(assert (= (select O 450) 1))
(assert (= (select O 451) 1))
(assert (= (select O 452) 1))
(assert (= (select O 453) 1))
(assert (= (select O 454) 2))
(assert (= (select O 455) 1))
(assert (= (select O 456) 1))
(assert (= (select O 457) 2))
(assert (= (select O 458) 1))
(assert (= (select O 459) 1))
(assert (= (select O 460) 1))
(assert (= (select O 461) 1))
(assert (= (select O 462) 1))
(assert (= (select O 463) 1))
(assert (= (select O 464) 1))
(assert (= (select O 465) 1))
(assert (= (select O 466) 2))
(assert (= (select O 467) 1))
(assert (= (select O 468) 1))
(assert (= (select O 469) 1))
(assert (= (select O 470) 2))
(assert (= (select O 471) 2))
(assert (= (select O 472) 2))
(assert (= (select O 473) 1))
(assert (= (select O 474) 2))
(assert (= (select O 475) 2))
(assert (= (select O 476) 1))
(assert (= (select O 477) 1))
(assert (= (select O 478) 1))
(assert (= (select O 479) 1))
(assert (= (select O 480) 1))
(assert (= (select O 481) 1))
(assert (= (select O 482) 1))
(assert (= (select O 483) 1))
(assert (= (select O 484) 1))
(assert (= (select O 485) 2))
(assert (= (select O 486) 1))
(assert (= (select O 487) 1))
(assert (= (select O 488) 1))
(assert (= (select O 489) 1))
(assert (= (select O 490) 1))
(assert (= (select O 491) 2))
(assert (= (select O 492) 1))
(assert (= (select O 493) 1))
(assert (= (select O 494) 1))
(assert (= (select O 495) 2))
(assert (= (select O 496) 2))
(assert (= (select O 497) 1))
(assert (= (select O 498) 1))
(assert (= (select O 499) 1))
(assert (= (select O 500) 2))
(assert (= (select O 501) 1))
(assert (= (select O 502) 1))
(assert (= (select O 503) 2))
(assert (= (select O 504) 2))
(assert (= (select O 505) 2))
(assert (= (select O 506) 1))
(assert (= (select O 507) 2))
(assert (= (select O 508) 1))
(assert (= (select O 509) 1))
(assert (= (select O 510) 2))
(assert (= (select O 511) 1))
(assert (= (select O 512) 1))
(assert (= (select O 513) 1))
(assert (= (select O 514) 1))
(assert (= (select O 515) 1))
(assert (= (select O 516) 1))
(assert (= (select O 517) 2))
(assert (= (select O 518) 1))
(assert (= (select O 519) 1))
(assert (= (select O 520) 1))
(assert (= (select O 521) 2))
(assert (= (select O 522) 2))
(assert (= (select O 523) 1))
(assert (= (select O 524) 1))
(assert (= (select O 525) 1))
(assert (= (select O 526) 1))
(assert (= (select O 527) 1))
(assert (= (select O 528) 2))
(assert (= (select O 529) 1))
(assert (= (select O 530) 1))
(assert (= (select O 531) 2))
(assert (= (select O 532) 1))
(assert (= (select O 533) 1))
(assert (= (select O 534) 1))
(assert (= (select O 535) 2))
(assert (= (select O 536) 1))
(assert (= (select O 537) 1))
(assert (= (select O 538) 2))
(assert (= (select O 539) 1))
(assert (= (select O 540) 2))
(assert (= (select O 541) 1))
(assert (= (select O 542) 2))
(assert (= (select O 543) 2))
(assert (= (select O 544) 1))
(assert (= (select O 545) 2))
(assert (= (select O 546) 1))
(assert (= (select O 547) 1))
(assert (= (select O 548) 2))
(assert (= (select O 549) 1))
(assert (= (select O 550) 1))
(assert (= (select O 551) 1))
(assert (= (select O 552) 2))
(assert (= (select O 553) 1))
(assert (= (select O 554) 1))
(assert (= (select O 555) 2))
(assert (= (select O 556) 2))
(assert (= (select O 557) 2))
(assert (= (select O 558) 2))
(assert (= (select O 559) 2))
(assert (= (select O 560) 1))
(assert (= (select O 561) 2))
(assert (= (select O 562) 1))
(assert (= (select O 563) 2))
(assert (= (select O 564) 1))
(assert (= (select O 565) 1))
(assert (= (select O 566) 2))
(assert (= (select O 567) 1))
(assert (= (select O 568) 1))
(assert (= (select O 569) 2))
(assert (= (select O 570) 2))
(assert (= (select O 571) 1))
(assert (= (select O 572) 1))
(assert (= (select O 573) 1))
(assert (= (select O 574) 1))
(assert (= (select O 575) 1))
(assert (= (select O 576) 1))
(assert (= (select O 577) 1))
(assert (= (select O 578) 2))
(assert (= (select O 579) 1))
(assert (= (select O 580) 2))
(assert (= (select O 581) 1))
(assert (= (select O 582) 1))
(assert (= (select O 583) 2))
(assert (= (select O 584) 1))
(assert (= (select O 585) 2))
(assert (= (select O 586) 1))
(assert (= (select O 587) 1))
(assert (= (select O 588) 2))
(assert (= (select O 589) 2))
(assert (= (select O 590) 1))
(assert (= (select O 591) 1))
(assert (= (select O 592) 1))
(assert (= (select O 593) 2))
(assert (= (select O 594) 2))
(assert (= (select O 595) 2))
(assert (= (select O 596) 2))
(assert (= (select O 597) 2))
(assert (= (select O 598) 2))
(assert (= (select O 599) 1))

(declare-const L (Array Int Int))
(define-fun l () Int 2)

(assert (= (select L 0) 1))
(assert (= (select L 1) 2))

(define-fun-rec sum-if-value ((A (Array Int Int)) (item Int) (size Int)) Int
  (ite (< size 0)
       0
       (ite (= (select A size) item)
            (+ 1 (sum-if-value A item (- size 1)))
            (sum-if-value A item (- size 1))
       )
  )
)

(define-fun B () Int 2)

(assert
  (not
    (exists ((i Int))
      (and
        (>= i 0)
        (< i l)
        (< (sum-if-value O (select L i) (- m 1))
           (/ m (* l B)))
      )
    )
  )
)

(check-sat)
